NAME: concorde10
TYPE: TSP
RUN_TIME: 1.374
DISTANCE: 107
COMMENT: Solution by max williams
DIMENSION: 10
EDGE_WEIGHT_TYPE: EUC_2D
NODE_COORD_SECTION
1 22.549020 89.029530
2 23.039215 81.434600
7 25.245098 67.721520
6 23.774510 59.704640
8 30.065360 66.244730
5 38.071896 60.759495
9 36.029410 70.886080
10 49.264706 71.940926
4 40.277780 80.379745
3 30.392157 79.324900
